1 1632 8
2 1411 8
6 1346 7
8 1342 7
15 1257 7
935 1252 7



1 1731 8
2 1443 7
4 1429 8
5 1407 7
6 1379 7
9 1320 7
27 1312 7
41 1297 7
255 1281 7
259 1278 7
294 1269 7
761 1254 7



1 1575 7
2 1438 7
4 1357 7
7 1314 7
16 1296 7
63 1281 7
120 1264 7
940 1257 7



1 1626 8
2 1504 8
3 1412 7
4 1394 7
5 1392 7
7 1372 7
9 1359 7
10 1353 7
16 1351 7
19 1350 7
21 1298 7
30 1281 7
523 1277 7
704 1257 7



1 1610 7
2 1497 7
3 1483 7
4 1390 7
9 1350 7
31 1347 7
36 1320 7
47 1275 7
96 1271 7
672 1248 7



